
;this file is automatically generated: Mon Feb 10 17:02:04 CST 2020

;declarations generated

(declare-fun oclExcludes ( Int Int) Bool)
(declare-fun class9_Class9BoolAttr0 ( Int) Bool)
(declare-fun Cardinality ( Int) Int)
(declare-fun type_d27293d4_288c_4615_93df_6eee3ffe2832_Class9 ( Int) Bool)
(declare-fun oclSelect ( Int Bool) Int)
(declare-fun Enum0 ( Int) Int)
(declare-fun Enum1 ( Int) Int)
(declare-fun container_ ( Int) Int)
(declare-fun obj_a1e15a29_9aa6_41bf_88d6_9deb981d037e ( Int) Int)
(declare-fun oclIncludes ( Int Int) Bool)
(declare-fun ObjAt ( Int Int) Int)

;formula(s) generated
(assert (! (forall ((v Int)) (=> ( type_d27293d4_288c_4615_93df_6eee3ffe2832_Class9 v )  (not ( class9_Class9BoolAttr0 ( obj_a1e15a29_9aa6_41bf_88d6_9deb981d037e v )  )  ))):named l0))
(assert (exists ((o Int)) ( type_d27293d4_288c_4615_93df_6eee3ffe2832_Class9 ( obj_a1e15a29_9aa6_41bf_88d6_9deb981d037e o )  ) ))

 ;end of formula 